p cnf 118 2181
1 0
2 3 4 5 6 7 8 9 10 11 12 13 14 15 16 17 18 19 20 21 22 23 24 25 26 27 0
-2 -3 0
-2 -4 0
-2 -5 0
-2 -6 0
-2 -7 0
-2 -8 0
-2 -9 0
-2 -10 0
-2 -11 0
-2 -12 0
-2 -13 0
-2 -14 0
-2 -15 0
-2 -16 0
-2 -17 0
-2 -18 0
-2 -19 0
-2 -20 0
-2 -21 0
-2 -22 0
-2 -23 0
-2 -24 0
-2 -25 0
-2 -26 0
-2 -27 0
-3 -4 0
-3 -5 0
-3 -6 0
-3 -7 0
-3 -8 0
-3 -9 0
-3 -10 0
-3 -11 0
-3 -12 0
-3 -13 0
-3 -14 0
-3 -15 0
-3 -16 0
-3 -17 0
-3 -18 0
-3 -19 0
-3 -20 0
-3 -21 0
-3 -22 0
-3 -23 0
-3 -24 0
-3 -25 0
-3 -26 0
-3 -27 0
-4 -5 0
-4 -6 0
-4 -7 0
-4 -8 0
-4 -9 0
-4 -10 0
-4 -11 0
-4 -12 0
-4 -13 0
-4 -14 0
-4 -15 0
-4 -16 0
-4 -17 0
-4 -18 0
-4 -19 0
-4 -20 0
-4 -21 0
-4 -22 0
-4 -23 0
-4 -24 0
-4 -25 0
-4 -26 0
-4 -27 0
-5 -6 0
-5 -7 0
-5 -8 0
-5 -9 0
-5 -10 0
-5 -11 0
-5 -12 0
-5 -13 0
-5 -14 0
-5 -15 0
-5 -16 0
-5 -17 0
-5 -18 0
-5 -19 0
-5 -20 0
-5 -21 0
-5 -22 0
-5 -23 0
-5 -24 0
-5 -25 0
-5 -26 0
-5 -27 0
-6 -7 0
-6 -8 0
-6 -9 0
-6 -10 0
-6 -11 0
-6 -12 0
-6 -13 0
-6 -14 0
-6 -15 0
-6 -16 0
-6 -17 0
-6 -18 0
-6 -19 0
-6 -20 0
-6 -21 0
-6 -22 0
-6 -23 0
-6 -24 0
-6 -25 0
-6 -26 0
-6 -27 0
-7 -8 0
-7 -9 0
-7 -10 0
-7 -11 0
-7 -12 0
-7 -13 0
-7 -14 0
-7 -15 0
-7 -16 0
-7 -17 0
-7 -18 0
-7 -19 0
-7 -20 0
-7 -21 0
-7 -22 0
-7 -23 0
-7 -24 0
-7 -25 0
-7 -26 0
-7 -27 0
-8 -9 0
-8 -10 0
-8 -11 0
-8 -12 0
-8 -13 0
-8 -14 0
-8 -15 0
-8 -16 0
-8 -17 0
-8 -18 0
-8 -19 0
-8 -20 0
-8 -21 0
-8 -22 0
-8 -23 0
-8 -24 0
-8 -25 0
-8 -26 0
-8 -27 0
-9 -10 0
-9 -11 0
-9 -12 0
-9 -13 0
-9 -14 0
-9 -15 0
-9 -16 0
-9 -17 0
-9 -18 0
-9 -19 0
-9 -20 0
-9 -21 0
-9 -22 0
-9 -23 0
-9 -24 0
-9 -25 0
-9 -26 0
-9 -27 0
-10 -11 0
-10 -12 0
-10 -13 0
-10 -14 0
-10 -15 0
-10 -16 0
-10 -17 0
-10 -18 0
-10 -19 0
-10 -20 0
-10 -21 0
-10 -22 0
-10 -23 0
-10 -24 0
-10 -25 0
-10 -26 0
-10 -27 0
-11 -12 0
-11 -13 0
-11 -14 0
-11 -15 0
-11 -16 0
-11 -17 0
-11 -18 0
-11 -19 0
-11 -20 0
-11 -21 0
-11 -22 0
-11 -23 0
-11 -24 0
-11 -25 0
-11 -26 0
-11 -27 0
-12 -13 0
-12 -14 0
-12 -15 0
-12 -16 0
-12 -17 0
-12 -18 0
-12 -19 0
-12 -20 0
-12 -21 0
-12 -22 0
-12 -23 0
-12 -24 0
-12 -25 0
-12 -26 0
-12 -27 0
-13 -14 0
-13 -15 0
-13 -16 0
-13 -17 0
-13 -18 0
-13 -19 0
-13 -20 0
-13 -21 0
-13 -22 0
-13 -23 0
-13 -24 0
-13 -25 0
-13 -26 0
-13 -27 0
-14 -15 0
-14 -16 0
-14 -17 0
-14 -18 0
-14 -19 0
-14 -20 0
-14 -21 0
-14 -22 0
-14 -23 0
-14 -24 0
-14 -25 0
-14 -26 0
-14 -27 0
-15 -16 0
-15 -17 0
-15 -18 0
-15 -19 0
-15 -20 0
-15 -21 0
-15 -22 0
-15 -23 0
-15 -24 0
-15 -25 0
-15 -26 0
-15 -27 0
-16 -17 0
-16 -18 0
-16 -19 0
-16 -20 0
-16 -21 0
-16 -22 0
-16 -23 0
-16 -24 0
-16 -25 0
-16 -26 0
-16 -27 0
-17 -18 0
-17 -19 0
-17 -20 0
-17 -21 0
-17 -22 0
-17 -23 0
-17 -24 0
-17 -25 0
-17 -26 0
-17 -27 0
-18 -19 0
-18 -20 0
-18 -21 0
-18 -22 0
-18 -23 0
-18 -24 0
-18 -25 0
-18 -26 0
-18 -27 0
-19 -20 0
-19 -21 0
-19 -22 0
-19 -23 0
-19 -24 0
-19 -25 0
-19 -26 0
-19 -27 0
-20 -21 0
-20 -22 0
-20 -23 0
-20 -24 0
-20 -25 0
-20 -26 0
-20 -27 0
-21 -22 0
-21 -23 0
-21 -24 0
-21 -25 0
-21 -26 0
-21 -27 0
-22 -23 0
-22 -24 0
-22 -25 0
-22 -26 0
-22 -27 0
-23 -24 0
-23 -25 0
-23 -26 0
-23 -27 0
-24 -25 0
-24 -26 0
-24 -27 0
-25 -26 0
-25 -27 0
-26 -27 0
-29 28 0
30 31 32 0
-30 -31 0
-30 -32 0
-31 -32 0
35 36 37 38 0
-35 -36 0
-35 -37 0
-35 -38 0
-36 -37 0
-36 -38 0
-37 -38 0
39 40 41 42 43 44 45 46 47 48 0
-39 -40 0
-39 -41 0
-39 -42 0
-39 -43 0
-39 -44 0
-39 -45 0
-39 -46 0
-39 -47 0
-39 -48 0
-40 -41 0
-40 -42 0
-40 -43 0
-40 -44 0
-40 -45 0
-40 -46 0
-40 -47 0
-40 -48 0
-41 -42 0
-41 -43 0
-41 -44 0
-41 -45 0
-41 -46 0
-41 -47 0
-41 -48 0
-42 -43 0
-42 -44 0
-42 -45 0
-42 -46 0
-42 -47 0
-42 -48 0
-43 -44 0
-43 -45 0
-43 -46 0
-43 -47 0
-43 -48 0
-44 -45 0
-44 -46 0
-44 -47 0
-44 -48 0
-45 -46 0
-45 -47 0
-45 -48 0
-46 -47 0
-46 -48 0
-47 -48 0
49 50 51 52 53 0
-49 -50 0
-49 -51 0
-49 -52 0
-49 -53 0
-50 -51 0
-50 -52 0
-50 -53 0
-51 -52 0
-51 -53 0
-52 -53 0
56 57 58 59 0
-56 -57 0
-56 -58 0
-56 -59 0
-57 -58 0
-57 -59 0
-58 -59 0
60 61 62 63 64 65 0
-60 -61 0
-60 -62 0
-60 -63 0
-60 -64 0
-60 -65 0
-61 -62 0
-61 -63 0
-61 -64 0
-61 -65 0
-62 -63 0
-62 -64 0
-62 -65 0
-63 -64 0
-63 -65 0
-64 -65 0
66 67 68 69 70 71 72 0
-66 -67 0
-66 -68 0
-66 -69 0
-66 -70 0
-66 -71 0
-66 -72 0
-67 -68 0
-67 -69 0
-67 -70 0
-67 -71 0
-67 -72 0
-68 -69 0
-68 -70 0
-68 -71 0
-68 -72 0
-69 -70 0
-69 -71 0
-69 -72 0
-70 -71 0
-70 -72 0
-71 -72 0
73 74 75 76 0
-73 -74 0
-73 -75 0
-73 -76 0
-74 -75 0
-74 -76 0
-75 -76 0
78 79 80 81 82 83 84 85 0
-78 -79 0
-78 -80 0
-78 -81 0
-78 -82 0
-78 -83 0
-78 -84 0
-78 -85 0
-79 -80 0
-79 -81 0
-79 -82 0
-79 -83 0
-79 -84 0
-79 -85 0
-80 -81 0
-80 -82 0
-80 -83 0
-80 -84 0
-80 -85 0
-81 -82 0
-81 -83 0
-81 -84 0
-81 -85 0
-82 -83 0
-82 -84 0
-82 -85 0
-83 -84 0
-83 -85 0
-84 -85 0
87 88 89 90 91 92 93 94 0
-87 -88 0
-87 -89 0
-87 -90 0
-87 -91 0
-87 -92 0
-87 -93 0
-87 -94 0
-88 -89 0
-88 -90 0
-88 -91 0
-88 -92 0
-88 -93 0
-88 -94 0
-89 -90 0
-89 -91 0
-89 -92 0
-89 -93 0
-89 -94 0
-90 -91 0
-90 -92 0
-90 -93 0
-90 -94 0
-91 -92 0
-91 -93 0
-91 -94 0
-92 -93 0
-92 -94 0
-93 -94 0
95 96 97 98 99 100 101 0
-95 -96 0
-95 -97 0
-95 -98 0
-95 -99 0
-95 -100 0
-95 -101 0
-96 -97 0
-96 -98 0
-96 -99 0
-96 -100 0
-96 -101 0
-97 -98 0
-97 -99 0
-97 -100 0
-97 -101 0
-98 -99 0
-98 -100 0
-98 -101 0
-99 -100 0
-99 -101 0
-100 -101 0
102 103 104 105 106 107 108 109 110 111 112 113 114 115 116 117 0
-102 -103 0
-102 -104 0
-102 -105 0
-102 -106 0
-102 -107 0
-102 -108 0
-102 -109 0
-102 -110 0
-102 -111 0
-102 -112 0
-102 -113 0
-102 -114 0
-102 -115 0
-102 -116 0
-102 -117 0
-103 -104 0
-103 -105 0
-103 -106 0
-103 -107 0
-103 -108 0
-103 -109 0
-103 -110 0
-103 -111 0
-103 -112 0
-103 -113 0
-103 -114 0
-103 -115 0
-103 -116 0
-103 -117 0
-104 -105 0
-104 -106 0
-104 -107 0
-104 -108 0
-104 -109 0
-104 -110 0
-104 -111 0
-104 -112 0
-104 -113 0
-104 -114 0
-104 -115 0
-104 -116 0
-104 -117 0
-105 -106 0
-105 -107 0
-105 -108 0
-105 -109 0
-105 -110 0
-105 -111 0
-105 -112 0
-105 -113 0
-105 -114 0
-105 -115 0
-105 -116 0
-105 -117 0
-106 -107 0
-106 -108 0
-106 -109 0
-106 -110 0
-106 -111 0
-106 -112 0
-106 -113 0
-106 -114 0
-106 -115 0
-106 -116 0
-106 -117 0
-107 -108 0
-107 -109 0
-107 -110 0
-107 -111 0
-107 -112 0
-107 -113 0
-107 -114 0
-107 -115 0
-107 -116 0
-107 -117 0
-108 -109 0
-108 -110 0
-108 -111 0
-108 -112 0
-108 -113 0
-108 -114 0
-108 -115 0
-108 -116 0
-108 -117 0
-109 -110 0
-109 -111 0
-109 -112 0
-109 -113 0
-109 -114 0
-109 -115 0
-109 -116 0
-109 -117 0
-110 -111 0
-110 -112 0
-110 -113 0
-110 -114 0
-110 -115 0
-110 -116 0
-110 -117 0
-111 -112 0
-111 -113 0
-111 -114 0
-111 -115 0
-111 -116 0
-111 -117 0
-112 -113 0
-112 -114 0
-112 -115 0
-112 -116 0
-112 -117 0
-113 -114 0
-113 -115 0
-113 -116 0
-113 -117 0
-114 -115 0
-114 -116 0
-114 -117 0
-115 -116 0
-115 -117 0
-116 -117 0
-5 -28 0
-2 -28 0
-3 -28 0
-5 -90 0
-5 -93 0
-5 -91 0
-5 -92 0
-5 -89 0
-5 -94 0
-2 -90 0
-2 -93 0
-2 -91 0
-2 -92 0
-2 -89 0
-2 -94 0
-3 -90 0
-3 -93 0
-3 -91 0
-3 -89 0
-3 -94 0
-4 -90 0
-4 -88 0
-4 -91 0
-4 -92 0
-4 -89 0
-4 -94 0
-14 -81 0
-14 -78 0
-14 -85 0
-14 -83 0
-14 -80 0
-14 -84 0
-14 -82 0
-11 -81 0
-11 -85 0
-11 -83 0
-11 -79 0
-11 -84 0
-11 -82 0
-9 -81 0
-9 -85 0
-9 -83 0
-9 -79 0
-9 -84 0
-9 -82 0
-12 -81 0
-12 -78 0
-12 -85 0
-12 -83 0
-12 -79 0
-12 -80 0
-12 -82 0
-10 -85 0
-10 -83 0
-10 -79 0
-10 -84 0
-10 -82 0
-8 -81 0
-8 -85 0
-8 -83 0
-8 -79 0
-8 -84 0
-8 -82 0
-7 -81 0
-7 -85 0
-7 -83 0
-7 -79 0
-7 -84 0
-7 -82 0
-13 -81 0
-13 -85 0
-13 -83 0
-13 -79 0
-13 -80 0
-13 -84 0
-13 -82 0
-6 -81 0
-6 -85 0
-6 -83 0
-6 -79 0
-6 -84 0
-6 -82 0
-15 -81 0
-15 -85 0
-15 -83 0
-15 -79 0
-15 -80 0
-15 -84 0
-15 -82 0
-23 -56 0
-23 -58 0
-23 -57 0
-21 -59 0
-21 -56 0
-21 -57 0
-22 -59 0
-22 -56 0
-22 -57 0
-24 -56 0
-24 -58 0
-24 -57 0
-20 -77 0
-18 -77 0
-19 -77 0
-17 -77 0
-16 -77 0
-25 -118 0
-27 -118 0
-26 118 0
-18 -28 0
-19 -28 0
-17 -28 0
-16 -28 0
-14 -62 0
-14 -60 0
-14 -64 0
-14 -65 0
-14 -63 0
-11 -62 0
-11 -60 0
-11 -64 0
-11 -65 0
-11 -63 0
-9 -62 0
-9 -60 0
-9 -64 0
-9 -65 0
-9 -63 0
-12 -62 0
-12 -60 0
-12 -64 0
-12 -65 0
-12 -63 0
-10 -62 0
-10 -60 0
-10 -64 0
-10 -65 0
-10 -63 0
-8 -62 0
-8 -60 0
-8 -64 0
-8 -65 0
-8 -63 0
-7 -60 0
-7 -64 0
-7 -65 0
-7 -63 0
-13 -62 0
-13 -60 0
-13 -64 0
-13 -65 0
-13 -63 0
-6 -60 0
-6 -64 0
-6 -65 0
-6 -63 0
-15 -62 0
-15 -60 0
-15 -64 0
-15 -65 0
-15 -63 0
-14 -117 0
-14 -112 0
-14 -102 0
-14 -115 0
-14 -111 0
-14 -106 0
-14 -103 0
-14 -113 0
-14 -116 0
-14 -110 0
-14 -104 0
-14 -105 0
-14 -107 0
-11 -117 0
-11 -112 0
-11 -102 0
-11 -111 0
-11 -106 0
-11 -103 0
-11 -109 0
-11 -116 0
-11 -110 0
-11 -104 0
-9 -117 0
-9 -112 0
-9 -102 0
-9 -115 0
-9 -103 0
-9 -108 0
-9 -116 0
-9 -110 0
-9 -107 0
-12 -117 0
-12 -112 0
-12 -102 0
-12 -115 0
-12 -111 0
-12 -106 0
-12 -103 0
-12 -108 0
-12 -109 0
-12 -116 0
-12 -110 0
-12 -104 0
-12 -105 0
-12 -107 0
-10 -117 0
-10 -112 0
-10 -102 0
-10 -115 0
-10 -111 0
-10 -103 0
-10 -108 0
-10 -116 0
-10 -110 0
-10 -107 0
-8 -117 0
-8 -112 0
-8 -102 0
-8 -111 0
-8 -106 0
-8 -114 0
-8 -103 0
-8 -113 0
-8 -116 0
-8 -110 0
-8 -107 0
-7 -117 0
-7 -112 0
-7 -102 0
-7 -115 0
-7 -111 0
-7 -106 0
-7 -114 0
-7 -103 0
-7 -113 0
-7 -116 0
-7 -110 0
-7 -107 0
-13 -117 0
-13 -112 0
-13 -102 0
-13 -115 0
-13 -111 0
-13 -103 0
-13 -108 0
-13 -116 0
-13 -110 0
-13 -107 0
-6 -117 0
-6 -112 0
-6 -102 0
-6 -115 0
-6 -111 0
-6 -106 0
-6 -114 0
-6 -103 0
-6 -113 0
-6 -116 0
-6 -110 0
-6 -107 0
-15 -117 0
-15 -112 0
-15 -102 0
-15 -111 0
-15 -106 0
-15 -114 0
-15 -103 0
-15 -113 0
-15 -116 0
-15 -110 0
-15 -104 0
-15 -105 0
-15 -107 0
-25 -62 0
-25 -60 0
-25 -64 0
-25 -61 0
-25 -65 0
-27 -62 0
-27 -60 0
-27 -64 0
-27 -61 0
-27 -65 0
-26 -60 0
-26 -65 0
-26 -63 0
-5 -59 0
-5 -56 0
-5 -58 0
-2 -59 0
-2 -58 0
-2 -57 0
-3 -59 0
-3 -58 0
-3 -57 0
-4 -59 0
-4 -58 0
-4 -57 0
-25 -112 0
-25 -102 0
-25 -115 0
-25 -111 0
-25 -106 0
-25 -114 0
-25 -103 0
-25 -113 0
-25 -108 0
-25 -109 0
-25 -110 0
-25 -104 0
-25 -105 0
-25 -107 0
-27 -117 0
-27 -112 0
-27 -102 0
-27 -115 0
-27 -111 0
-27 -106 0
-27 -114 0
-27 -103 0
-27 -113 0
-27 -108 0
-27 -116 0
-27 -104 0
-27 -105 0
-27 -107 0
-26 -117 0
-26 -112 0
-26 -115 0
-26 -111 0
-26 -106 0
-26 -114 0
-26 -113 0
-26 -109 0
-26 -116 0
-26 -110 0
-26 -107 0
-25 -72 0
-25 -70 0
-25 -71 0
-25 -67 0
-25 -68 0
-25 -69 0
-27 -72 0
-27 -66 0
-27 -70 0
-27 -71 0
-27 -68 0
-27 -69 0
-26 -72 0
-26 -66 0
-26 -71 0
-26 -67 0
-26 -68 0
-26 -69 0
-5 -30 0
-5 -32 0
-2 -30 0
-2 -32 0
-3 -32 0
-3 -31 0
-4 -30 0
-4 -32 0
-14 -93 0
-14 -88 0
-14 -91 0
-14 -92 0
-14 -89 0
-14 -94 0
-11 -93 0
-11 -92 0
-11 -94 0
-9 -90 0
-9 -93 0
-9 -91 0
-9 -92 0
-9 -89 0
-9 -94 0
-12 -90 0
-12 -93 0
-12 -88 0
-12 -91 0
-12 -89 0
-12 -94 0
-10 -90 0
-10 -93 0
-10 -91 0
-10 -92 0
-10 -89 0
-10 -94 0
-8 -90 0
-8 -93 0
-8 -91 0
-8 -92 0
-8 -89 0
-8 -94 0
-7 -90 0
-7 -93 0
-7 -91 0
-7 -92 0
-7 -89 0
-7 -94 0
-13 -90 0
-13 -93 0
-13 -88 0
-13 -91 0
-13 -92 0
-13 -89 0
-6 -90 0
-6 -93 0
-6 -91 0
-6 -92 0
-6 -89 0
-6 -94 0
-15 -93 0
-15 -88 0
-15 -91 0
-15 -92 0
-15 -89 0
-15 -94 0
-23 -30 0
-23 -31 0
-21 -30 0
-21 -32 0
-22 -30 0
-22 -32 0
-24 -30 0
-24 -31 0
-14 -77 0
-11 -77 0
-9 77 0
-12 -77 0
-10 77 0
-8 -77 0
-7 -77 0
-13 -77 0
-6 -77 0
-15 -77 0
-5 -76 0
-5 -75 0
-2 -76 0
-2 -75 0
-3 -76 0
-3 -75 0
-4 -76 0
-4 -75 0
-20 -117 0
-20 -115 0
-20 -111 0
-20 -106 0
-20 -114 0
-20 -108 0
-20 -109 0
-20 -116 0
-20 -110 0
-20 -104 0
-20 -105 0
-20 -107 0
-18 -117 0
-18 -115 0
-18 -111 0
-18 -106 0
-18 -108 0
-18 -109 0
-18 -116 0
-18 -110 0
-18 -105 0
-18 -107 0
-19 -117 0
-19 -115 0
-19 -111 0
-19 -106 0
-19 -114 0
-19 -108 0
-19 -109 0
-19 -116 0
-19 -110 0
-19 -104 0
-19 -105 0
-19 -107 0
-17 -117 0
-17 -115 0
-17 -111 0
-17 -106 0
-17 -114 0
-17 -108 0
-17 -109 0
-17 -116 0
-17 -110 0
-17 -104 0
-17 -105 0
-17 -107 0
-16 -117 0
-16 -115 0
-16 -111 0
-16 -106 0
-16 -108 0
-16 -109 0
-16 -116 0
-16 -110 0
-16 -105 0
-16 -107 0
-23 -117 0
-23 -112 0
-23 -102 0
-23 -115 0
-23 -111 0
-23 -106 0
-23 -108 0
-23 -116 0
-23 -110 0
-23 -107 0
-21 -117 0
-21 -112 0
-21 -115 0
-21 -111 0
-21 -106 0
-21 -113 0
-21 -108 0
-21 -116 0
-21 -110 0
-21 -107 0
-22 -117 0
-22 -112 0
-22 -115 0
-22 -111 0
-22 -106 0
-22 -113 0
-22 -108 0
-22 -116 0
-22 -110 0
-22 -107 0
-24 -117 0
-24 -112 0
-24 -102 0
-24 -115 0
-24 -111 0
-24 -106 0
-24 -113 0
-24 -108 0
-24 -109 0
-24 -116 0
-24 -110 0
-24 -107 0
-5 34 0
-5 -55 0
-2 -55 0
-3 -55 0
-4 -55 0
-25 -55 0
-27 -55 0
-26 -55 0
-25 -90 0
-25 -93 0
-25 -88 0
-25 -87 0
-25 -91 0
-25 -89 0
-25 -94 0
-27 -90 0
-27 -93 0
-27 -88 0
-27 -91 0
-27 -92 0
-27 -89 0
-27 -94 0
-26 -90 0
-26 -93 0
-26 -88 0
-26 -91 0
-26 -92 0
-26 -89 0
-26 -94 0
-20 -34 0
-18 34 0
-19 34 0
-17 34 0
-16 34 0
-5 -42 0
-5 -40 0
-5 -48 0
-5 -41 0
-5 -39 0
-5 -47 0
-5 -43 0
-2 -46 0
-2 -42 0
-2 -40 0
-2 -48 0
-2 -41 0
-2 -39 0
-2 -47 0
-2 -43 0
-3 -42 0
-3 -40 0
-3 -48 0
-3 -41 0
-3 -39 0
-3 -43 0
-4 -42 0
-4 -40 0
-4 -48 0
-4 -41 0
-4 -39 0
-4 -43 0
-20 -52 0
-20 -51 0
-20 -53 0
-18 -53 0
-18 -50 0
-18 -49 0
-19 -52 0
-19 -51 0
-19 -53 0
-19 -49 0
-17 -53 0
-17 -50 0
-17 -49 0
-16 -51 0
-16 -50 0
-16 -49 0
-20 -30 0
-20 -31 0
-18 -30 0
-18 -32 0
-19 -30 0
-19 -31 0
-17 -32 0
-17 -31 0
-16 -32 0
-16 -31 0
-25 -52 0
-25 -51 0
-25 -50 0
-25 -49 0
-27 -52 0
-27 -51 0
-27 -50 0
-27 -49 0
-26 -52 0
-26 -51 0
-26 -50 0
-26 -49 0
-14 -42 0
-14 -40 0
-14 -48 0
-14 -41 0
-14 -39 0
-14 -44 0
-14 -47 0
-14 -43 0
-11 -42 0
-11 -40 0
-11 -48 0
-11 -41 0
-11 -39 0
-11 -47 0
-11 -43 0
-9 -42 0
-9 -45 0
-9 -40 0
-9 -48 0
-9 -39 0
-9 -43 0
-12 -42 0
-12 -40 0
-12 -48 0
-12 -41 0
-12 -39 0
-12 -44 0
-12 -43 0
-10 -42 0
-10 -45 0
-10 -40 0
-10 -48 0
-10 -39 0
-10 -43 0
-8 -42 0
-8 -45 0
-8 -40 0
-8 -48 0
-8 -41 0
-8 -39 0
-8 -43 0
-7 -42 0
-7 -45 0
-7 -40 0
-7 -48 0
-7 -41 0
-7 -39 0
-7 -43 0
-13 -42 0
-13 -45 0
-13 -40 0
-13 -48 0
-13 -39 0
-13 -43 0
-6 -42 0
-6 -45 0
-6 -40 0
-6 -48 0
-6 -41 0
-6 -39 0
-6 -43 0
-15 -42 0
-15 -40 0
-15 -48 0
-15 -41 0
-15 -39 0
-15 -43 0
-20 -46 0
-20 -42 0
-20 -45 0
-20 -40 0
-20 -48 0
-20 -41 0
-20 -39 0
-20 -47 0
-20 -43 0
-18 -46 0
-18 -45 0
-18 -40 0
-18 -48 0
-18 -39 0
-18 -47 0
-18 -43 0
-19 -46 0
-19 -45 0
-19 -40 0
-19 -48 0
-19 -39 0
-19 -47 0
-17 -46 0
-17 -45 0
-17 -40 0
-17 -48 0
-17 -39 0
-17 -47 0
-17 -43 0
-16 -46 0
-16 -40 0
-16 -48 0
-16 -39 0
-16 -47 0
-16 -43 0
-23 -42 0
-23 -45 0
-23 -48 0
-23 -43 0
-21 -42 0
-21 -45 0
-21 -40 0
-21 -48 0
-21 -39 0
-21 -43 0
-22 -42 0
-22 -45 0
-22 -40 0
-22 -48 0
-22 -41 0
-22 -39 0
-22 -43 0
-24 -42 0
-24 -45 0
-24 -40 0
-24 -48 0
-24 -41 0
-24 -39 0
-24 -47 0
-24 -43 0
-20 -78 0
-20 -85 0
-20 -83 0
-20 -79 0
-20 -80 0
-20 -84 0
-20 -82 0
-18 -85 0
-18 -83 0
-18 -79 0
-18 -84 0
-18 -82 0
-19 -81 0
-19 -78 0
-19 -85 0
-19 -79 0
-19 -80 0
-19 -84 0
-17 -81 0
-17 -85 0
-17 -83 0
-17 -79 0
-17 -80 0
-17 -84 0
-17 -82 0
-16 -81 0
-16 -85 0
-16 -83 0
-16 -79 0
-16 -80 0
-16 -84 0
-16 -82 0
-5 -117 0
-5 -112 0
-5 -102 0
-5 -115 0
-5 -111 0
-5 -106 0
-5 -114 0
-5 -113 0
-5 -108 0
-5 -109 0
-5 -116 0
-5 -110 0
-5 -104 0
-5 -107 0
-2 -117 0
-2 -112 0
-2 -102 0
-2 -115 0
-2 -111 0
-2 -106 0
-2 -114 0
-2 -113 0
-2 -108 0
-2 -109 0
-2 -116 0
-2 -110 0
-2 -105 0
-2 -107 0
-3 -117 0
-3 -112 0
-3 -102 0
-3 -115 0
-3 -111 0
-3 -106 0
-3 -114 0
-3 -113 0
-3 -108 0
-3 -116 0
-3 -110 0
-3 -107 0
-4 -117 0
-4 -112 0
-4 -102 0
-4 -115 0
-4 -111 0
-4 -106 0
-4 -114 0
-4 -113 0
-4 -108 0
-4 -116 0
-4 -110 0
-4 -107 0
-23 -52 0
-23 -51 0
-23 -53 0
-23 -50 0
-21 -52 0
-21 -53 0
-21 -50 0
-21 -49 0
-22 -52 0
-22 -51 0
-22 -53 0
-22 -49 0
-24 -52 0
-24 -51 0
-24 -53 0
-24 -50 0
-23 -34 0
-24 34 0
-25 -28 0
-27 -28 0
-26 -28 0
-14 -118 0
-11 -118 0
-12 -118 0
-8 -118 0
-13 -118 0
-15 -118 0
-21 -28 0
-22 -28 0
-20 -76 0
-20 -75 0
-20 -73 0
-18 -76 0
-18 -75 0
-18 -73 0
-19 -76 0
-19 -75 0
-19 -73 0
-17 -76 0
-17 -75 0
-17 -73 0
-16 -76 0
-16 -75 0
-16 -73 0
-24 -54 0
-20 -62 0
-20 -64 0
-20 -65 0
-20 -63 0
-18 -62 0
-18 -60 0
-18 -64 0
-18 -65 0
-18 -63 0
-19 -62 0
-19 -60 0
-19 -64 0
-19 -65 0
-19 -63 0
-17 -62 0
-17 -60 0
-17 -64 0
-17 -65 0
-17 -63 0
-16 -62 0
-16 -60 0
-16 -64 0
-16 -65 0
-16 -63 0
-20 -118 0
-18 -118 0
-19 -118 0
-17 -118 0
-16 -118 0
-5 77 0
-25 -81 0
-25 -78 0
-25 -83 0
-25 -79 0
-25 -80 0
-25 -84 0
-25 -82 0
-27 -81 0
-27 -85 0
-27 -83 0
-27 -79 0
-27 -80 0
-27 -84 0
-27 -82 0
-26 -81 0
-26 -85 0
-26 -83 0
-26 -79 0
-26 -80 0
-26 -84 0
-26 -82 0
-25 -59 0
-25 -58 0
-25 -57 0
-27 -59 0
-27 -58 0
-27 -57 0
-26 -59 0
-26 -58 0
-14 -56 0
-14 -58 0
-14 -57 0
-11 -59 0
-11 -56 0
-11 -57 0
-9 -59 0
-9 -56 0
-9 -58 0
-12 -56 0
-12 -58 0
-12 -57 0
-10 -59 0
-10 -56 0
-10 -58 0
-8 -59 0
-8 -56 0
-8 -58 0
-7 -59 0
-7 -58 0
-7 -57 0
-13 -56 0
-13 -58 0
-13 -57 0
-6 -59 0
-6 -58 0
-6 -57 0
-15 -56 0
-15 -58 0
-15 -57 0
-5 -38 0
-5 -35 0
-2 -38 0
-2 -35 0
-3 -38 0
-4 -38 0
-25 -97 0
-25 -101 0
-25 -100 0
-25 -95 0
-25 -96 0
-25 -98 0
-27 -97 0
-27 -101 0
-27 -100 0
-27 -95 0
-27 -96 0
-27 -98 0
-26 -97 0
-26 -101 0
-26 -95 0
-26 -96 0
-26 -98 0
-5 -99 0
-5 -101 0
-5 -96 0
-2 -99 0
-2 -101 0
-2 -96 0
-3 -99 0
-3 -101 0
-3 -96 0
-4 -99 0
-4 -101 0
-4 -96 0
-5 -86 0
-2 -86 0
-3 -86 0
-4 -86 0
-23 -66 0
-23 -70 0
-23 -71 0
-23 -67 0
-23 -68 0
-23 -69 0
-21 -72 0
-21 -66 0
-21 -70 0
-21 -71 0
-21 -67 0
-21 -68 0
-22 -72 0
-22 -66 0
-22 -71 0
-22 -67 0
-22 -68 0
-22 -69 0
-24 -66 0
-24 -70 0
-24 -71 0
-24 -67 0
-24 -68 0
-24 -69 0
-20 -90 0
-20 -93 0
-20 -87 0
-20 -91 0
-20 -92 0
-20 -89 0
-20 -94 0
-18 -90 0
-18 -93 0
-18 -91 0
-18 -92 0
-18 -89 0
-18 -94 0
-19 -90 0
-19 -93 0
-19 -88 0
-19 -91 0
-19 -92 0
-19 -89 0
-19 -94 0
-17 -90 0
-17 -93 0
-17 -88 0
-17 -91 0
-17 -92 0
-17 -89 0
-17 -94 0
-16 -90 0
-16 -93 0
-16 -91 0
-16 -89 0
-16 -94 0
-5 -72 0
-5 -66 0
-5 -71 0
-5 -67 0
-5 -68 0
-5 -69 0
-2 -72 0
-2 -66 0
-2 -71 0
-2 -67 0
-2 -68 0
-2 -69 0
-3 -72 0
-3 -66 0
-3 -70 0
-3 -71 0
-3 -67 0
-3 -69 0
-4 -66 0
-4 -70 0
-4 -71 0
-4 -67 0
-4 -68 0
-4 -69 0
-27 33 0
-20 -55 0
-18 -55 0
-19 -55 0
-17 -55 0
-16 -55 0
-5 -78 0
-5 -85 0
-5 -83 0
-5 -79 0
-5 -84 0
-5 -82 0
-2 -85 0
-2 -83 0
-2 -79 0
-2 -84 0
-2 -82 0
-3 -81 0
-3 -78 0
-3 -85 0
-3 -83 0
-3 -79 0
-3 -80 0
-3 -82 0
-4 -78 0
-4 -85 0
-4 -83 0
-4 -79 0
-4 -84 0
-4 -82 0
-5 -52 0
-5 -53 0
-5 -50 0
-5 -49 0
-2 -52 0
-2 -50 0
-2 -49 0
-3 -51 0
-3 -50 0
-3 -49 0
-4 -52 0
-4 -50 0
-4 -49 0
-25 -46 0
-25 -42 0
-25 -45 0
-25 -40 0
-25 -41 0
-25 -39 0
-25 -44 0
-25 -43 0
-27 -46 0
-27 -42 0
-27 -45 0
-27 -40 0
-27 -48 0
-27 -41 0
-27 -39 0
-27 -44 0
-27 -43 0
-26 -42 0
-26 -40 0
-26 -48 0
-26 -41 0
-26 -39 0
-26 -43 0
-25 -32 0
-25 -31 0
-27 -32 0
-27 -31 0
-26 -30 0
-26 -32 0
-14 -101 0
-14 -95 0
-14 -96 0
-14 -98 0
-11 -101 0
-11 -100 0
-11 -96 0
-11 -98 0
-9 -99 0
-9 -97 0
-9 -100 0
-9 -98 0
-12 -99 0
-12 -97 0
-12 -101 0
-12 -100 0
-12 -98 0
-10 -99 0
-10 -97 0
-10 -100 0
-10 -98 0
-8 -101 0
-8 -100 0
-8 -96 0
-8 -98 0
-7 -99 0
-7 -97 0
-7 -100 0
-7 -98 0
-13 -99 0
-13 -97 0
-13 -101 0
-13 -100 0
-13 -98 0
-6 -99 0
-6 -97 0
-6 -100 0
-6 -98 0
-15 -101 0
-15 -96 0
-15 -98 0
-27 34 0
-23 -99 0
-23 -97 0
-23 -100 0
-23 -98 0
-21 -99 0
-21 -97 0
-21 -100 0
-21 -98 0
-22 -99 0
-22 -97 0
-22 -100 0
-22 -98 0
-24 -99 0
-24 -97 0
-24 -100 0
-24 -98 0
-23 -118 0
-21 -118 0
-22 -118 0
-24 -118 0
-23 -77 0
-21 77 0
-24 77 0
-5 -62 0
-5 -60 0
-5 -64 0
-5 -65 0
-5 -63 0
-2 -62 0
-2 -60 0
-2 -64 0
-2 -65 0
-2 -63 0
-3 -60 0
-3 -64 0
-3 -65 0
-3 -63 0
-4 -60 0
-4 -64 0
-4 -65 0
-4 -63 0
-20 -66 0
-20 -70 0
-20 -71 0
-20 -67 0
-20 -68 0
-20 -69 0
-18 -72 0
-18 -66 0
-18 -71 0
-18 -67 0
-18 -68 0
-18 -69 0
-19 -72 0
-19 -66 0
-19 -70 0
-19 -67 0
-19 -68 0
-19 -69 0
-17 -72 0
-17 -66 0
-17 -70 0
-17 -71 0
-17 -67 0
-17 -69 0
-16 -72 0
-16 -66 0
-16 -70 0
-16 -71 0
-16 -67 0
-16 -69 0
-14 -37 0
-14 -38 0
-11 -37 0
-11 -38 0
-11 -35 0
-9 -37 0
-9 -38 0
-12 -37 0
-12 -38 0
-10 -37 0
-10 -38 0
-8 -37 0
-8 -38 0
-7 -37 0
-7 -38 0
-13 -37 0
-13 -38 0
-6 -37 0
-6 -38 0
-15 -37 0
-15 -38 0
-14 -54 0
-15 -54 0
-14 -55 0
-11 -55 0
-8 -55 0
-15 -55 0
-14 -52 0
-14 -51 0
-14 -50 0
-14 -49 0
-11 -51 0
-11 -50 0
-11 -49 0
-9 -51 0
-9 -50 0
-9 -49 0
-12 -52 0
-12 -51 0
-12 -50 0
-12 -49 0
-10 -51 0
-10 -50 0
-10 -49 0
-8 -51 0
-8 -50 0
-8 -49 0
-7 -52 0
-7 -51 0
-7 -50 0
-7 -49 0
-13 -52 0
-13 -51 0
-13 -50 0
-13 -49 0
-6 -52 0
-6 -51 0
-6 -50 0
-6 -49 0
-15 -52 0
-15 -51 0
-15 -50 0
-15 -49 0
-23 -78 0
-23 -85 0
-23 -83 0
-23 -79 0
-23 -84 0
-23 -82 0
-21 -81 0
-21 -85 0
-21 -83 0
-21 -79 0
-21 -84 0
-21 -82 0
-22 -85 0
-22 -83 0
-22 -79 0
-22 -84 0
-22 -82 0
-24 -78 0
-24 -85 0
-24 -83 0
-24 -79 0
-24 -80 0
-24 -84 0
-24 -82 0
-5 -118 0
-2 -118 0
-3 -118 0
-4 -118 0
-20 -56 0
-20 -58 0
-20 -57 0
-18 -59 0
-18 -56 0
-18 -57 0
-19 -56 0
-19 -58 0
-19 -57 0
-17 -59 0
-17 -56 0
-17 -57 0
-16 -59 0
-16 -56 0
-16 -58 0
-23 -76 0
-23 -75 0
-21 -76 0
-21 -75 0
-21 -73 0
-22 -76 0
-22 -75 0
-24 -76 0
-24 -75 0
-25 -54 0
-27 -54 0
-26 -54 0
-20 -38 0
-18 -38 0
-18 -35 0
-19 -38 0
-19 -35 0
-17 -37 0
-17 -38 0
-17 -35 0
-16 -37 0
-16 -38 0
-16 -35 0
-23 -62 0
-23 -60 0
-23 -64 0
-23 -63 0
-21 -62 0
-21 -60 0
-21 -64 0
-21 -65 0
-21 -63 0
-22 -62 0
-22 -60 0
-22 -64 0
-22 -63 0
-24 -62 0
-24 -60 0
-24 -64 0
-24 -63 0
-20 -54 0
-18 -54 0
-19 -54 0
-17 -54 0
-16 -54 0
-14 -76 0
-14 -75 0
-14 -73 0
-11 -76 0
-11 -75 0
-9 -76 0
-9 -75 0
-12 -76 0
-12 -75 0
-10 -76 0
-10 -75 0
-8 -75 0
-8 -74 0
-8 -73 0
-7 -76 0
-7 -75 0
-13 -76 0
-13 -75 0
-6 -76 0
-6 -75 0
-15 -76 0
-15 -75 0
-23 -37 0
-23 -38 0
-21 -37 0
-21 -38 0
-22 -37 0
-22 -38 0
-24 -38 0
-24 -35 0
-14 -72 0
-14 -66 0
-14 -70 0
-14 -71 0
-14 -68 0
-14 -69 0
-11 -72 0
-11 -66 0
-11 -70 0
-11 -71 0
-11 -67 0
-11 -68 0
-9 -72 0
-9 -66 0
-9 -70 0
-9 -71 0
-9 -67 0
-9 -68 0
-12 -72 0
-12 -66 0
-12 -70 0
-12 -71 0
-12 -68 0
-12 -69 0
-10 -72 0
-10 -66 0
-10 -71 0
-10 -67 0
-10 -68 0
-10 -69 0
-8 -72 0
-8 -66 0
-8 -70 0
-8 -71 0
-8 -67 0
-8 -68 0
-7 -72 0
-7 -66 0
-7 -71 0
-7 -67 0
-7 -68 0
-7 -69 0
-13 -72 0
-13 -66 0
-13 -70 0
-13 -71 0
-13 -67 0
-13 -69 0
-6 -72 0
-6 -66 0
-6 -70 0
-6 -71 0
-6 -67 0
-6 -68 0
-15 -72 0
-15 -66 0
-15 -70 0
